language ESSENCE' 1.0

letting jobs = 102
letting horizon = 772
letting resourcesRenew = 2
letting resourcesNonrenew = 2
letting resourceLimits = [48, 45, 172, 145]
letting successors = [[2, 3, 4, 5, 6, 7, 8, 9, 10, 11, 12, 13, 14, 15, 16, 17, 18, 19, 21, 22, 25, 26, 27, 28, 30, 36, 37, 40, 41], [98, 82, 81, 80, 79, 77, 69, 68, 63, 61, 59, 58, 56, 55, 54, 53, 52, 49, 48, 47, 46, 29, 23], [88, 84, 83, 80, 79, 70, 68, 61, 58, 57, 55, 53, 51, 50, 49, 47, 24], [88, 84, 69, 68, 63, 60, 58, 57, 49, 47, 42, 39, 20], [101, 79, 69, 59, 55, 51, 49, 35, 32, 29, 24], [95, 87, 83, 80, 59, 56, 51, 50, 47, 33, 24], [101, 100, 93, 82, 81, 80, 77, 76, 69, 68, 65, 61, 58, 57, 53, 51, 44, 38], [91, 84, 83, 80, 68, 66, 65, 61, 58, 53, 29, 24], [99, 86, 80, 77, 69, 68, 67, 58, 55, 47, 31, 23], [101, 100, 99, 96, 87, 78, 70, 67, 64, 63, 62, 61, 59, 58, 57, 49, 43, 39], [93, 84, 82, 81, 80, 77, 66, 61, 56, 53, 52, 51, 38, 29], [98, 90, 87, 84, 83, 81, 80, 79, 77, 67, 61, 58, 56, 55, 49, 47, 46], [101, 97, 93, 84, 81, 80, 69, 68, 67, 66, 34, 29], [97, 93, 89, 88, 87, 86, 83, 80, 79, 78, 70, 69, 67, 61, 56, 55, 54, 51, 47], [99, 93, 88, 85, 84, 83, 81, 80, 78, 77, 58, 57, 55, 53, 50, 45], [100, 99, 98, 94, 93, 91, 90, 88, 84, 83, 82, 81, 79, 78, 68, 67, 66, 65, 58, 53, 49], [101, 99, 98, 93, 90, 88, 87, 82, 80, 68, 66, 62, 61, 58, 56, 55, 43], [98, 97, 95, 90, 89, 87, 85, 82, 81, 61, 59, 47, 33], [97, 95, 93, 91, 90, 88, 86, 82, 81, 78, 77, 70, 65, 62, 61, 57, 52], [96, 93, 92, 87, 86, 82, 81, 80, 66, 65, 62, 59, 52, 51], [94, 92, 89, 87, 83, 79, 77, 69, 66, 56, 55, 32], [99, 93, 91, 90, 87, 86, 85, 84, 83, 82, 73, 61, 55, 48], [100, 96, 93, 91, 90, 87, 84, 83, 78, 76, 75, 72, 66, 65, 62, 57], [100, 98, 97, 96, 93, 90, 86, 82, 81, 78, 75, 74, 62, 52], [99, 95, 94, 93, 92, 91, 90, 89, 87, 86, 85, 84, 76, 75, 72, 67, 66, 65], [101, 100, 99, 98, 97, 95, 94, 93, 89, 88, 85, 83, 81, 75, 71, 69, 57], [98, 95, 93, 92, 90, 88, 87, 84, 78, 61, 47], [100, 95, 93, 86, 83, 81, 74, 72, 66, 63, 62, 59], [100, 99, 96, 95, 94, 88, 87, 86, 85, 78, 76, 75, 72, 71, 57], [97, 96, 95, 94, 93, 92, 91, 90, 89, 88, 84, 76, 74, 73, 58], [98, 97, 96, 95, 93, 91, 90, 82, 79, 76, 73, 71, 65, 61], [100, 98, 97, 96, 95, 90, 80, 76, 73, 71, 65, 61], [100, 93, 91, 88, 84, 76, 72, 68, 66, 65, 57], [98, 96, 92, 91, 90, 83, 82, 76, 73, 65, 58], [99, 95, 90, 84, 81, 78, 74, 73, 68, 66, 61], [99, 90, 88, 87, 84, 83, 80, 79, 76, 72, 71, 65], [98, 94, 90, 88, 85, 76, 73, 71, 56], [99, 98, 96, 86, 85, 83, 79, 75, 74, 71, 67], [95, 94, 93, 92, 91, 83, 77, 75, 72, 71, 65], [100, 94, 93, 90, 88, 85, 76, 72, 57], [97, 93, 91, 90, 89, 75, 72, 71, 57], [95, 94, 93, 91, 79, 76, 73, 71, 61], [97, 92, 89, 79, 76, 75, 73, 71, 65], [97, 94, 91, 90, 89, 85, 84, 73, 66], [98, 91, 86, 75, 73, 72, 66, 65], [99, 97, 93, 92, 89, 88, 74, 73, 72], [96, 94, 76, 73, 72, 66, 65], [97, 96, 92, 76, 75, 66, 65], [97, 95, 86, 76, 75, 73, 72, 71], [101, 91, 90, 82, 72, 71, 65], [98, 90, 85, 75, 72, 71], [99, 76, 72, 71, 67], [96, 87, 86, 75, 73], [92, 90, 73, 72, 71], [100, 95, 76, 71], [91, 72, 65], [92, 74, 73], [75, 72, 71], [91, 75, 73], [97, 90, 73], [75, 72], [94, 89], [90, 76], [88, 74], [74], [71], [73], [71], [72], [85], [102], [102], [102], [102], [102], [102], [102], [102], [102], [102], [102], [102], [102], [102], [102], [102], [102], [102], [102], [102], [102], [102], [102], [102], [102], [102], [102], [102], [102], [102], [102], []]
letting durations = [[0], [4, 9, 10], [3, 5, 10], [4, 8, 9], [2, 6, 8], [4, 5, 6], [2, 2, 7], [1, 2, 9], [4, 6, 10], [1, 3, 9], [1, 8, 10], [6, 8, 9], [4, 6, 10], [4, 4, 5], [1, 7, 9], [2, 4, 6], [1, 2, 8], [4, 5, 10], [2, 5, 6], [5, 5, 8], [4, 9, 9], [1, 1, 2], [2, 5, 8], [5, 6, 10], [2, 3, 6], [4, 8, 8], [2, 6, 8], [4, 10, 10], [4, 5, 7], [2, 7, 8], [1, 4, 6], [1, 5, 10], [6, 7, 9], [2, 5, 8], [3, 8, 9], [2, 6, 6], [2, 3, 6], [3, 4, 7], [1, 2, 10], [2, 4, 5], [1, 3, 6], [1, 3, 10], [1, 2, 9], [6, 7, 7], [3, 5, 8], [5, 9, 10], [2, 6, 8], [2, 2, 7], [3, 8, 9], [3, 7, 8], [1, 5, 7], [6, 6, 10], [1, 3, 3], [3, 7, 7], [4, 9, 10], [2, 7, 7], [3, 3, 4], [1, 6, 7], [1, 3, 9], [6, 7, 9], [4, 7, 9], [5, 9, 10], [6, 7, 10], [4, 7, 8], [3, 6, 10], [1, 6, 10], [5, 5, 8], [2, 4, 5], [1, 5, 6], [1, 7, 9], [4, 5, 6], [4, 8, 9], [2, 3, 4], [1, 4, 8], [1, 4, 5], [9, 10, 10], [3, 8, 9], [7, 8, 9], [2, 3, 8], [3, 3, 4], [4, 5, 6], [2, 2, 9], [2, 5, 6], [3, 6, 8], [5, 8, 9], [6, 6, 7], [1, 3, 7], [3, 7, 7], [6, 8, 9], [2, 9, 10], [5, 8, 10], [2, 7, 10], [4, 5, 6], [4, 5, 9], [4, 8, 8], [1, 3, 5], [2, 4, 6], [2, 4, 7], [1, 1, 3], [1, 2, 5], [1, 1, 2], [0]]
letting resourceUsage = [[[0, 0, 0, 0]], [[0, 8, 0, 5], [5, 0, 5, 0], [5, 0, 4, 0]], [[1, 0, 0, 4], [1, 0, 8, 0], [0, 6, 0, 1]], [[0, 4, 4, 0], [2, 0, 0, 1], [1, 0, 0, 1]], [[8, 0, 0, 9], [0, 5, 4, 0], [7, 0, 0, 8]], [[0, 7, 0, 6], [9, 0, 0, 5], [9, 0, 0, 3]], [[0, 7, 8, 0], [0, 4, 0, 3], [7, 0, 0, 2]], [[0, 9, 0, 4], [0, 5, 3, 0], [5, 0, 3, 0]], [[5, 0, 6, 0], [2, 0, 5, 0], [0, 7, 2, 0]], [[0, 8, 0, 8], [0, 5, 0, 7], [3, 0, 0, 5]], [[0, 5, 0, 5], [5, 0, 4, 0], [4, 0, 3, 0]], [[7, 0, 7, 0], [0, 5, 7, 0], [0, 4, 7, 0]], [[0, 9, 9, 0], [0, 8, 0, 3], [0, 5, 0, 3]], [[0, 4, 0, 10], [3, 0, 4, 0], [0, 3, 2, 0]], [[0, 7, 3, 0], [4, 0, 2, 0], [4, 0, 1, 0]], [[9, 0, 0, 10], [7, 0, 0, 8], [0, 1, 3, 0]], [[10, 0, 0, 6], [0, 4, 0, 6], [0, 3, 0, 4]], [[2, 0, 5, 0], [2, 0, 3, 0], [2, 0, 0, 8]], [[9, 0, 0, 2], [0, 6, 0, 2], [5, 0, 9, 0]], [[10, 0, 0, 3], [0, 3, 6, 0], [0, 3, 5, 0]], [[0, 9, 3, 0], [6, 0, 0, 2], [4, 0, 2, 0]], [[4, 0, 0, 6], [0, 6, 0, 6], [1, 0, 1, 0]], [[10, 0, 0, 8], [0, 4, 0, 6], [0, 3, 0, 5]], [[0, 10, 7, 0], [3, 0, 7, 0], [0, 9, 7, 0]], [[0, 7, 7, 0], [8, 0, 0, 2], [8, 0, 4, 0]], [[9, 0, 0, 8], [0, 4, 0, 3], [8, 0, 8, 0]], [[7, 0, 0, 4], [0, 4, 7, 0], [4, 0, 0, 3]], [[10, 0, 0, 4], [0, 7, 0, 3], [0, 5, 4, 0]], [[10, 0, 0, 9], [8, 0, 4, 0], [0, 5, 4, 0]], [[10, 0, 0, 8], [0, 2, 0, 6], [3, 0, 3, 0]], [[8, 0, 6, 0], [0, 2, 6, 0], [0, 2, 5, 0]], [[6, 0, 6, 0], [6, 0, 0, 6], [5, 0, 3, 0]], [[4, 0, 0, 1], [3, 0, 3, 0], [3, 0, 0, 1]], [[10, 0, 10, 0], [0, 7, 0, 5], [3, 0, 0, 4]], [[0, 7, 10, 0], [0, 7, 8, 0], [0, 4, 0, 1]], [[8, 0, 0, 9], [0, 6, 5, 0], [4, 0, 2, 0]], [[0, 2, 0, 6], [0, 2, 0, 3], [0, 2, 0, 1]], [[7, 0, 0, 9], [6, 0, 0, 6], [2, 0, 1, 0]], [[0, 4, 6, 0], [0, 3, 5, 0], [8, 0, 4, 0]], [[0, 4, 4, 0], [2, 0, 0, 6], [2, 0, 3, 0]], [[4, 0, 0, 9], [3, 0, 0, 4], [2, 0, 0, 3]], [[6, 0, 2, 0], [5, 0, 1, 0], [0, 6, 1, 0]], [[0, 8, 0, 5], [5, 0, 0, 5], [5, 0, 0, 2]], [[3, 0, 0, 10], [0, 1, 0, 9], [3, 0, 0, 9]], [[5, 0, 0, 7], [4, 0, 0, 7], [3, 0, 0, 1]], [[8, 0, 9, 0], [8, 0, 7, 0], [0, 4, 0, 4]], [[5, 0, 0, 5], [0, 5, 0, 3], [0, 4, 4, 0]], [[0, 6, 6, 0], [0, 5, 0, 7], [9, 0, 5, 0]], [[0, 6, 0, 10], [0, 3, 4, 0], [0, 2, 1, 0]], [[0, 8, 2, 0], [0, 8, 0, 6], [0, 6, 0, 5]], [[0, 7, 10, 0], [6, 0, 7, 0], [0, 5, 2, 0]], [[4, 0, 9, 0], [0, 1, 9, 0], [0, 1, 8, 0]], [[2, 0, 4, 0], [0, 4, 4, 0], [1, 0, 3, 0]], [[6, 0, 0, 10], [6, 0, 0, 9], [6, 0, 1, 0]], [[0, 7, 2, 0], [6, 0, 2, 0], [0, 6, 0, 3]], [[8, 0, 4, 0], [0, 7, 4, 0], [7, 0, 2, 0]], [[2, 0, 0, 9], [0, 1, 0, 5], [0, 1, 0, 3]], [[9, 0, 10, 0], [8, 0, 8, 0], [7, 0, 6, 0]], [[7, 0, 6, 0], [6, 0, 6, 0], [0, 3, 2, 0]], [[3, 0, 3, 0], [0, 9, 2, 0], [0, 8, 2, 0]], [[0, 8, 9, 0], [0, 5, 0, 4], [8, 0, 0, 2]], [[0, 6, 4, 0], [0, 5, 0, 8], [0, 4, 0, 6]], [[0, 2, 8, 0], [3, 0, 7, 0], [1, 0, 6, 0]], [[9, 0, 0, 6], [9, 0, 8, 0], [8, 0, 8, 0]], [[0, 6, 6, 0], [5, 0, 0, 4], [1, 0, 0, 3]], [[0, 4, 0, 3], [7, 0, 3, 0], [5, 0, 0, 1]], [[2, 0, 10, 0], [0, 4, 0, 8], [1, 0, 3, 0]], [[0, 8, 0, 8], [7, 0, 1, 0], [0, 3, 0, 7]], [[4, 0, 0, 3], [3, 0, 0, 2], [3, 0, 4, 0]], [[0, 4, 0, 10], [10, 0, 8, 0], [0, 1, 4, 0]], [[0, 8, 7, 0], [7, 0, 3, 0], [0, 7, 1, 0]], [[6, 0, 7, 0], [5, 0, 7, 0], [0, 2, 7, 0]], [[0, 2, 9, 0], [0, 2, 0, 3], [3, 0, 0, 3]], [[0, 3, 0, 10], [0, 3, 4, 0], [0, 1, 2, 0]], [[0, 7, 3, 0], [7, 0, 2, 0], [4, 0, 2, 0]], [[0, 4, 0, 10], [6, 0, 0, 8], [0, 3, 3, 0]], [[1, 0, 0, 6], [0, 4, 0, 6], [0, 4, 0, 4]], [[7, 0, 5, 0], [7, 0, 3, 0], [0, 6, 0, 8]], [[0, 8, 0, 2], [0, 6, 0, 2], [1, 0, 9, 0]], [[0, 8, 0, 3], [0, 8, 6, 0], [0, 8, 5, 0]], [[0, 8, 3, 0], [7, 0, 0, 2], [7, 0, 2, 0]], [[0, 10, 10, 0], [4, 0, 0, 7], [4, 0, 0, 4]], [[0, 9, 3, 0], [5, 0, 0, 7], [2, 0, 1, 0]], [[10, 0, 7, 0], [5, 0, 0, 5], [0, 6, 5, 0]], [[7, 0, 2, 0], [0, 7, 0, 6], [0, 6, 0, 5]], [[7, 0, 8, 0], [0, 2, 0, 1], [3, 0, 0, 1]], [[0, 6, 3, 0], [0, 6, 2, 0], [0, 2, 0, 9]], [[0, 5, 2, 0], [0, 5, 1, 0], [2, 0, 0, 2]], [[0, 7, 8, 0], [0, 6, 0, 3], [0, 5, 8, 0]], [[0, 10, 0, 4], [7, 0, 2, 0], [0, 8, 2, 0]], [[0, 10, 0, 8], [0, 8, 7, 0], [0, 7, 4, 0]], [[9, 0, 10, 0], [6, 0, 0, 7], [4, 0, 0, 4]], [[4, 0, 3, 0], [0, 7, 0, 7], [3, 0, 1, 0]], [[0, 10, 7, 0], [0, 9, 0, 5], [0, 8, 5, 0]], [[4, 0, 2, 0], [0, 3, 0, 6], [2, 0, 0, 5]], [[9, 0, 8, 0], [7, 0, 0, 1], [6, 0, 0, 1]], [[0, 4, 3, 0], [0, 2, 2, 0], [8, 0, 0, 9]], [[0, 9, 2, 0], [0, 6, 2, 0], [2, 0, 0, 2]], [[6, 0, 8, 0], [0, 2, 0, 3], [0, 2, 8, 0]], [[4, 0, 0, 4], [3, 0, 2, 0], [0, 2, 2, 0]], [[0, 7, 0, 8], [0, 3, 7, 0], [4, 0, 4, 0]], [[0, 0, 0, 0]]]
